% Escenario 6:
% - 3 plantas
% - 4 clientes
% - 3 días
% Alta cobertura (G=80%), costos muy bajos en nuclear/hidro y más clientes.

np = 3;
nc = 4;
nd = 3;

nombrePlanta = ["Nuclear", "Hidroelectrica", "Termica"];
nombreCliente = ["A", "B", "C", "D"];

costo = [10.0, 12.0, 20.0];
cap = [300, 300, 300];
pago = [40.0, 50.0, 60.0, 70.0];

dem = array2d(1..nc, 1..nd, [
   20,  20,  30,
   30,  40,  50,
   60,  70,  40,
   10,  15,  20
]);

G = 0.80;

umbralAlto = [0.9, 0.9, 0.9];
maxDiasAlto = [1, 2, 2];
